CAPACITY = 3;
N_TASKS = 20;
d = [ 3, 3, 2, 3, 4, 2, 4, 5, 5, 3, 5, 5, 5, 4, 2, 2, 5, 2, 4, 3 ];
rr = [ 2, 2, 1, 1, 1, 2, 2, 1, 1, 1, 1, 1, 2, 2, 1, 2, 1, 1, 1, 1 ];
suc = [ {  },
       { 20 },
       { 4, 17 },
       { 14, 20 },
       { 10, 13 },
       { 13 },
       { 13 },
       { 12, 16 },
       { 13 },
       {  },
       {  },
       { 14 },
       { 19 },
       { 18 },
       {  },
       {  },
       {  },
       {  },
       {  },
       {  } ];
